(set-info :smt-lib-version 2.6)
(set-logic QF_UFLRA)
(set-info :source |
MathSat group

|)
(set-info :category "random")
(set-info :status sat)
(declare-fun f0_1 (Real) Real)
(declare-fun f0_2 (Real Real) Real)
(declare-fun f0_3 (Real Real Real) Real)
(declare-fun f0_4 (Real Real Real Real) Real)
(declare-fun f1_1 (Real) Real)
(declare-fun f1_2 (Real Real) Real)
(declare-fun f1_3 (Real Real Real) Real)
(declare-fun f1_4 (Real Real Real Real) Real)
(declare-fun x0 () Real)
(declare-fun x1 () Real)
(declare-fun x2 () Real)
(declare-fun x3 () Real)
(declare-fun x4 () Real)
(declare-fun x5 () Real)
(declare-fun x6 () Real)
(declare-fun x7 () Real)
(declare-fun x8 () Real)
(declare-fun x9 () Real)
(declare-fun x10 () Real)
(declare-fun x11 () Real)
(declare-fun x12 () Real)
(declare-fun x13 () Real)
(declare-fun x14 () Real)
(declare-fun x15 () Real)
(declare-fun x16 () Real)
(declare-fun x17 () Real)
(declare-fun x18 () Real)
(declare-fun x19 () Real)
(declare-fun x20 () Real)
(declare-fun x21 () Real)
(declare-fun x22 () Real)
(declare-fun x23 () Real)
(declare-fun x24 () Real)
(declare-fun x25 () Real)
(declare-fun x26 () Real)
(declare-fun x27 () Real)
(declare-fun x28 () Real)
(declare-fun x29 () Real)
(declare-fun x30 () Real)
(declare-fun x31 () Real)
(declare-fun x32 () Real)
(declare-fun x33 () Real)
(declare-fun x34 () Real)
(declare-fun x35 () Real)
(declare-fun x36 () Real)
(declare-fun x37 () Real)
(declare-fun x38 () Real)
(declare-fun x39 () Real)
(declare-fun P0 () Bool)
(declare-fun P1 () Bool)
(declare-fun P2 () Bool)
(declare-fun P3 () Bool)
(declare-fun P4 () Bool)
(declare-fun P5 () Bool)
(declare-fun P6 () Bool)
(declare-fun P7 () Bool)
(declare-fun P8 () Bool)
(declare-fun P9 () Bool)
(declare-fun P10 () Bool)
(declare-fun P11 () Bool)
(declare-fun P12 () Bool)
(declare-fun P13 () Bool)
(declare-fun P14 () Bool)
(declare-fun P15 () Bool)
(declare-fun P16 () Bool)
(declare-fun P17 () Bool)
(declare-fun P18 () Bool)
(declare-fun P19 () Bool)
(declare-fun P20 () Bool)
(declare-fun P21 () Bool)
(declare-fun P22 () Bool)
(declare-fun P23 () Bool)
(declare-fun P24 () Bool)
(declare-fun P25 () Bool)
(declare-fun P26 () Bool)
(declare-fun P27 () Bool)
(declare-fun P28 () Bool)
(declare-fun P29 () Bool)
(declare-fun P30 () Bool)
(declare-fun P31 () Bool)
(declare-fun P32 () Bool)
(declare-fun P33 () Bool)
(declare-fun P34 () Bool)
(declare-fun P35 () Bool)
(declare-fun P36 () Bool)
(declare-fun P37 () Bool)
(declare-fun P38 () Bool)
(declare-fun P39 () Bool)
(assert (let ((?v_7 (f1_1 x38)) (?v_37 (f0_2 x25 x21)) (?v_31 (- (- (* 23 x19) (* 22 x15)) (* 29 x18))) (?v_32 (- (- (* 10 x38) (* 11 x21)) (* 3 x15))) (?v_43 (* 5 x3)) (?v_8 (f1_1 x24)) (?v_28 (f1_1 x37)) (?v_20 (- (- (* 12 x38) (* 4 x24)) (* 9 x31))) (?v_392 (- (+ (* 26 x15) (* 20 x7)) (* 7 x26))) (?v_201 (f0_2 x24 x21)) (?v_2 (f1_1 x16))) (let ((?v_9 (f1_2 ?v_8 x23)) (?v_21 (f0_2 x36 x37)) (?v_5 (f0_2 x4 x15)) (?v_6 (f1_2 x39 x29)) (?v_35 (f0_1 x3)) (?v_106 (f0_2 x14 x5)) (?v_39 (- (- (* 3 x10) (* 11 x11)) (* 20 x24))) (?v_26 (f1_1 x33)) (?v_188 (f1_2 x21 x10)) (?v_69 (f0_2 x8 x5)) (?v_4 (f0_1 x2))) (let ((?v_77 (f0_2 ?v_5 ?v_6)) (?v_71 (f1_2 x29 x35)) (?v_52 (* 16 x10))) (let ((?v_27 (- (+ (* 22 x5) ?v_52) (* 14 x2))) (?v_90 (f1_1 x4)) (?v_202 (* 15 x26)) (?v_207 (f0_2 x37 x14)) (?v_73 (* 21 ?v_2))) (let ((?v_91 (f1_1 ?v_27)) (?v_22 (- (- (* 23 x13) (* 5 ?v_32)) (* 28 (- (+ (* 26 x28) (* 23 x22)) (* 22 x25))))) (?v_156 (f1_1 x27)) (?v_34 (f1_1 x32)) (?v_407 (* 7 x17)) (?v_117 (f1_1 x12)) (?v_129 (f1_1 x17)) (?v_11 (f1_1 x20)) (?v_116 (+ (- ?v_43 (* 5 x18)) (* 24 x32)))) (let ((?v_57 (f0_2 ?v_34 ?v_35)) (?v_38 (f1_2 x8 x31)) (?v_311 (f0_1 ?v_201)) (?v_223 (+ (- (* 27 x28) (* 15 x27)) (* 22 x9))) (?v_134 (f1_2 x13 x15)) (?v_433 (f0_2 x24 x5)) (?v_235 (f1_1 ?v_20)) (?v_49 (f1_2 x37 x35)) (?v_155 (f0_1 x28)) (?v_253 (< ?v_9 14))) (let ((?v_100 (< ?v_311 15)) (?v_65 (< x5 11)) (?v_44 (< ?v_433 0)) (?v_471 (< ?v_27 25)) (?v_364 (< ?v_207 26)) (?v_383 (< ?v_9 15)) (?v_418 (= ?v_235 x5)) (?v_260 (= x27 ?v_34)) (?v_346 (< (f0_1 x26) 4)) (?v_234 (< ?v_155 28)) (?v_391 (= ?v_223 ?v_22)) (?v_60 (< ?v_77 3)) (?v_352 (< ?v_69 18)) (?v_222 (< ?v_31 19)) (?v_80 (< x0 13)) (?v_206 (= ?v_49 (f1_2 x17 x1))) (?v_74 (< x23 2)) (?v_325 (< ?v_90 20)) (?v_472 (< x2 21)) (?v_451 (< ?v_433 6)) (?v_405 (< x21 23)) (?v_18 (< (- (+ ?v_202 (* 23 ?v_7)) (* 28 ?v_8)) 22)) (?v_438 (< (f0_2 x18 x32) 23)) (?v_152 (< ?v_71 4)) (?v_136 (< (f0_1 x7) 5)) (?v_310 (< ?v_11 0)) (?v_315 (< ?v_129 6)) (?v_150 (= ?v_4 x5)) (?v_291 (< ?v_20 15)) (?v_200 (= x29 ?v_39)) (?v_380 (= ?v_156 x6)) (?v_112 (= x38 ?v_31)) (?v_208 (< ?v_188 12)) (?v_168 (< x22 0)) (?v_314 (< x19 15)) (?v_301 (< x10 24)) (?v_394 (< x2 18)) (?v_212 (< x6 25)) (?v_192 (< (f0_2 x19 x39) 6)) (?v_62 (= ?v_4 ?v_11)) (?v_125 (= ?v_28 x24)) (?v_137 (< ?v_69 8)) (?v_362 (< x35 26)) (?v_241 (< (f0_1 x31) 18)) (?v_149 (< ?v_117 2)) (?v_465 (= x3 ?v_27)) (?v_110 (< ?v_22 1)) (?v_293 (< ?v_129 21)) (?v_95 (= ?v_22 ?v_116)) (?v_173 (< ?v_91 4)) (?v_335 (< x23 11)) (?v_452 (< x0 27)) (?v_284 (< x31 3)) (?v_217 (< ?v_9 23)) (?v_87 (< x39 5)) (?v_61 (< ?v_26 1)) (?v_174 (= ?v_57 x22)) (?v_279 (< ?v_69 24)) (?v_262 (< ?v_6 20)) (?v_123 (< ?v_37 20)) (?v_226 (< ?v_235 3)) (?v_423 (< ?v_28 12)) (?v_357 (= ?v_201 (- (+ (* 7 x28) ?v_202) (* 11 x20)))) (?v_461 (< ?v_20 4)) (?v_372 (= (f0_2 x39 x9) (f0_1 x17))) (?v_51 (< x32 14)) (?v_141 (= x39 (f0_1 ?v_134))) (?v_485 (< ?v_188 28)) (?v_3 (= ?v_49 x35)) (?v_85 (= ?v_22 ?v_20)) (?v_121 (not P20))) (let ((?v_154 (not ?v_51)) (?v_422 (not ?v_60)) (?v_274 (not ?v_262)) (?v_131 (not P3)) (?v_79 (not ?v_217)) (?v_431 (not ?v_301)) (?v_114 (not ?v_383)) (?v_104 (not ?v_85)) (?v_46 (not ?v_65)) (?v_276 (not ?v_291)) (?v_72 (not P4)) (?v_292 (not P37)) (?v_130 (not ?v_125)) (?v_225 (not ?v_380)) (?v_164 (not ?v_87)) (?v_450 (not ?v_136)) (?v_399 (not P17)) (?v_172 (not ?v_95)) (?v_58 (not P13)) (?v_143 (not P9)) (?v_67 (not ?v_80)) (?v_295 (not ?v_234)) (?v_68 (not ?v_62)) (?v_360 (not ?v_3)) (?v_165 (not ?v_200)) (?v_389 (not ?v_74)) (?v_183 (not P27)) (?v_169 (not ?v_100)) (?v_113 (not P6)) (?v_194 (not ?v_173)) (?v_466 (not P7)) (?v_294 (not ?v_293)) (?v_186 (not ?v_438)) (?v_329 (not P23)) (?v_119 (not ?v_472)) (?v_327 (not ?v_110)) (?v_159 (not ?v_112)) (?v_427 (not P36)) (?v_237 (not ?v_226)) (?v_342 (not P10)) (?v_187 (not P39)) (?v_484 (not ?v_315)) (?v_321 (not ?v_253)) (?v_236 (not P34)) (?v_378 (not P29)) (?v_474 (not ?v_123)) (?v_482 (not ?v_141)) (?v_429 (not ?v_372)) (?v_218 (not ?v_405)) (?v_384 (not P14)) (?v_179 (not P12)) (?v_231 (not ?v_346)) (?v_305 (not P38)) (?v_331 (not P5)) (?v_175 (not P18)) (?v_318 (not ?v_168)) (?v_397 (not P19)) (?v_477 (not ?v_485)) (?v_229 (not P11)) (?v_393 (not ?v_357)) (?v_271 (not ?v_452)) (?v_303 (not P24)) (?v_417 (not P16)) (?v_238 (not P32)) (?v_467 (not P21)) (?v_402 (not ?v_241)) (?v_240 (not P35)) (?v_464 (not P25)) (?v_479 (not ?v_418)) (?v_349 (not ?v_18)) (?v_367 (not ?v_152)) (?v_358 (not ?v_222)) (?v_375 (not P28)) (?v_267 (not ?v_260)) (?v_412 (not ?v_149)) (?v_312 (not P1)) (?v_344 (not ?v_314)) (?v_446 (not ?v_325)) (?v_336 (not ?v_284)) (?v_408 (not ?v_208)) (?v_302 (not P8)) (?v_456 (not P22)) (?v_353 (not ?v_279)) (?v_320 (not ?v_310)) (?v_481 (not P33)) (?v_363 (not ?v_137)) (?v_340 (not ?v_335)) (?v_476 (not ?v_465)) (?v_365 (not ?v_362)) (?v_462 (not ?v_391)) (?v_455 (not ?v_394)) (?v_434 (not P2)) (?v_473 (not ?v_352)) (?v_430 (not ?v_150)) (?v_460 (not P15)) (?v_457 (not ?v_212)) (?v_449 (not ?v_461)) (?v_379 (+ (* 5 ?v_37) ?v_73 (* 24 x33))) (?v_47 (+ (* 10 x1) (* 14 x22) (* 21 x25)))) (let ((?v_99 (= ?v_47 ?v_34)) (?v_84 (+ (* 29 x36) ?v_43 (* 6 x6)))) (let ((?v_89 (= ?v_84 x11))) (let ((?v_157 (not ?v_89)) (?v_29 (+ (* 26 x25) (* 27 x10) (* 26 x32))) (?v_76 (+ (* 27 x37) (* 10 x31) (* 22 x19))) (?v_97 (+ (* 6 x36) (* 4 x38) (* 26 x8))) (?v_132 (f0_1 ?v_47))) (let ((?v_124 (= ?v_132 x17))) (let ((?v_54 (not ?v_124)) (?v_86 (< (+ (- x2 (* 14 x11)) x21) 0)) (?v_189 (+ (- (* 24 ?v_76) (* 13 ?v_106)) (* 10 ?v_77)))) (let ((?v_299 (= ?v_189 (f0_2 x18 x1))) (?v_178 (< ?v_97 7))) (let ((?v_199 (not ?v_178)) (?v_245 (not ?v_86)) (?v_269 (< ?v_76 19)) (?v_298 (< (+ (* 5 x15) (* 25 x5) (* 9 x20)) 8))) (let ((?v_354 (not ?v_298)) (?v_441 (not ?v_299)) (?v_442 (< ?v_76 28))) (let ((?v_369 (not ?v_442)) (?v_404 (< ?v_379 0))) (let ((?v_425 (not ?v_404)) (?v_107 (< x17 (- 19)))) (let ((?v_78 (not ?v_107)) (?v_180 (< x15 (- 16)))) (let ((?v_184 (not ?v_180)) (?v_361 (< x7 (- 7)))) (let ((?v_242 (not ?v_361)) (?v_1 (+ (- (* (- 10) x37) (* 19 x10)) (* 29 x9)))) (let ((?v_14 (+ (* (- 10) (f0_2 x27 x27)) (* 7 ?v_2) (* 3 ?v_1)))) (let ((?v_30 (f0_2 ?v_392 ?v_14))) (let ((?v_13 (f0_2 x33 ?v_30))) (let ((?v_0 (f0_2 x3 ?v_13))) (let ((?v_228 (< ?v_0 1))) (let ((?v_53 (not ?v_228)) (?v_146 (< ?v_0 19)) (?v_115 (- (- (* 23 ?v_1) (* 20 ?v_71)) (* 27 ?v_207)))) (let ((?v_366 (- (+ (* 16 ?v_5) (* 11 ?v_115)) (* 7 ?v_379)))) (let ((?v_70 (< ?v_366 14))) (let ((?v_83 (not ?v_70)) (?v_94 (< ?v_69 (- 23))) (?v_17 (< ?v_4 (- 9))) (?v_195 (- (- (* (- 3) x27) (* 6 x21)) (* 3 x8)))) (let ((?v_147 (= (f0_1 (f1_1 x14)) ?v_195))) (let ((?v_403 (not ?v_147)) (?v_40 (- (+ (* (- 8) x31) (* 26 x27)) (* 3 x39)))) (let ((?v_15 (f0_2 ?v_40 x14))) (let ((?v_45 (< ?v_15 (- 21)))) (let ((?v_36 (not ?v_45)) (?v_160 (< x39 (- 23))) (?v_371 (< (- (+ (* (- 19) x35) ?v_407) (* 29 x6)) (- 3)))) (let ((?v_376 (not ?v_371)) (?v_81 (< ?v_21 (- 26))) (?v_12 (< ?v_7 (- 7))) (?v_133 (+ (* (- 13) x23) (* 21 x27) (* 17 x29)))) (let ((?v_142 (< ?v_133 (- 7))) (?v_10 (+ (- (* (- 28) x24) (* 6 x26)) (* 27 x36)))) (let ((?v_420 (< ?v_10 (- 20)))) (let ((?v_227 (not ?v_420)) (?v_324 (< x22 (- 28))) (?v_16 (= ?v_10 ?v_27))) (let ((?v_300 (not ?v_16)) (?v_19 (- (- (* (- 15) x39) (* 29 x15)) x33))) (let ((?v_82 (= ?v_19 ?v_11)) (?v_401 (< ?v_29 (- 4))) (?v_177 (not ?v_12)) (?v_24 (< ?v_13 (- 6))) (?v_232 (< ?v_14 (- 28)))) (let ((?v_377 (not ?v_232)) (?v_42 (< ?v_15 (- 6))) (?v_25 (+ (* (- 1) ?v_76) (* 19 ?v_28) (* 7 ?v_39)))) (let ((?v_105 (< ?v_25 (- 13))) (?v_261 (- (+ (* (- 27) x38) (* 15 x15)) (* 26 x33)))) (let ((?v_55 (= ?v_261 (f1_2 x29 x18))) (?v_48 (< ?v_97 (- 23))) (?v_204 (< ?v_19 26))) (let ((?v_122 (not ?v_204)) (?v_23 (< ?v_21 (- 9))) (?v_63 (< ?v_22 (- 1)))) (let ((?v_210 (not ?v_23)) (?v_128 (- (- (* 20 ?v_25) (* 12 ?v_35)) (* 9 x38)))) (let ((?v_215 (< (+ (- (* (- 19) x4) (* 12 ?v_128)) (* 13 ?v_38)) 24)) (?v_92 (- (- (* (- 27) ?v_90) (* 18 ?v_21)) (* 21 ?v_26)))) (let ((?v_59 (f1_2 ?v_92 ?v_91))) (let ((?v_109 (< ?v_59 7))) (let ((?v_374 (not ?v_109)) (?v_93 (< ?v_29 (- 18)))) (let ((?v_151 (not ?v_93)) (?v_33 (* 10 (- (- (* (- 13) x30) x24) (* 15 x34))))) (let ((?v_166 (- (+ ?v_33 (* 5 x14)) (* 17 x3)))) (let ((?v_198 (< ?v_166 (- 25))) (?v_41 (< ?v_30 (- 2)))) (let ((?v_406 (not ?v_41)) (?v_75 (- (+ (* (- 21) ?v_26) ?v_31) (* 10 x15)))) (let ((?v_118 (f0_2 ?v_75 ?v_32))) (let ((?v_428 (< ?v_118 15))) (let ((?v_297 (not ?v_428)) (?v_101 (+ (- (* 15 ?v_14) (* 14 x14)) ?v_33))) (let ((?v_98 (< ?v_101 21)) (?v_50 (< ?v_10 (- 4))) (?v_144 (< ?v_38 (- 9)))) (let ((?v_56 (not ?v_144)) (?v_66 (< ?v_39 (- 17)))) (let ((?v_193 (not ?v_66)) (?v_191 (< ?v_40 (- 12))) (?v_347 (not ?v_42)) (?v_182 (< x19 (- 16)))) (let ((?v_103 (not ?v_182)) (?v_249 (not ?v_50)) (?v_111 (< (- (- (* 29 x29) (* 8 x3)) ?v_52) (- 28))) (?v_216 (< (f0_2 (- (+ (* 7 x16) (* 21 x16)) (* 25 x15)) ?v_15) (- 25))) (?v_313 (not ?v_55)) (?v_64 (< ?v_57 (- 17))) (?v_272 (< (+ (- (* (- 11) x37) (* 21 x13)) (* 8 x30)) 26))) (let ((?v_185 (not ?v_272)) (?v_426 (< x27 (- 12))) (?v_88 (= ?v_59 x37)) (?v_244 (< x18 (- 11)))) (let ((?v_148 (not ?v_244)) (?v_265 (not ?v_24)) (?v_127 (< x20 (- 21))) (?v_102 (+ (- (* (- 8) ?v_30) ?v_73) (* 14 x38)))) (let ((?v_138 (< ?v_102 (- 22)))) (let ((?v_197 (not ?v_138)) (?v_120 (+ (- (* 2 ?v_38) (* 27 x30)) (* 24 ?v_75)))) (let ((?v_263 (< ?v_120 (- 29)))) (let ((?v_108 (not ?v_263)) (?v_283 (+ (- (* (- 8) x20) (* 17 x33)) (* 21 x24)))) (let ((?v_140 (< ?v_283 (- 9)))) (let ((?v_326 (not ?v_140)) (?v_145 (< ?v_77 (- 9))) (?v_96 (< ?v_15 4)) (?v_281 (not ?v_82)) (?v_415 (< ?v_84 (- 21)))) (let ((?v_277 (not ?v_415)) (?v_205 (not ?v_88)) (?v_139 (< ?v_90 (- 21))) (?v_158 (< ?v_92 5)) (?v_341 (not ?v_96)) (?v_323 (= ?v_101 (- (- (* (- 9) x0) (* 27 x18)) (* 6 x32)))) (?v_171 (< (- (+ (* (- 16) x28) x24) (* 4 x16)) 6))) (let ((?v_246 (not ?v_171)) (?v_280 (= ?v_102 x19)) (?v_203 (not ?v_105)) (?v_135 (< ?v_106 (- 24))) (?v_317 (< ?v_134 (- 3)))) (let ((?v_214 (not ?v_317)) (?v_190 (not ?v_17)) (?v_348 (not ?v_111)) (?v_381 (+ (* (- 22) ?v_115) (* 4 (f1_1 ?v_116)) (* 23 ?v_117)))) (let ((?v_196 (< ?v_381 (- 28))) (?v_167 (< ?v_47 (- 16))) (?v_163 (- (- (* (- 20) x9) (* 17 x32)) (* 17 x15)))) (let ((?v_382 (f0_1 ?v_163))) (let ((?v_153 (< (+ (- (* 26 (f0_1 x12)) (* 29 ?v_382)) (* 4 ?v_118)) (- 28)))) (let ((?v_243 (not ?v_153)) (?v_126 (< ?v_120 (- 27)))) (let ((?v_282 (not ?v_126)) (?v_224 (< x19 (- 1))) (?v_413 (< ?v_19 14))) (let ((?v_161 (not ?v_413)) (?v_339 (< ?v_128 15))) (let ((?v_211 (not ?v_339)) (?v_221 (< x12 (- 17))) (?v_275 (not (= ?v_132 ?v_133))) (?v_356 (< ?v_28 (- 1)))) (let ((?v_290 (not ?v_356)) (?v_410 (= (- (- (* (- 28) x33) (* 6 x28)) (* 15 x32)) x34))) (let ((?v_289 (not ?v_410)) (?v_162 (not ?v_142)) (?v_251 (not ?v_146)) (?v_213 (< x15 (- 9))) (?v_170 (< (+ (* 9 x28) (* 6 (+ (- (* (- 12) x2) (* 23 x1)) ?v_43)) (* 13 ?v_71)) 21)) (?v_219 (< ?v_155 (- 3))) (?v_270 (+ (- (* (- 19) x24) (* 23 x9)) (* 10 x20)))) (let ((?v_181 (= ?v_270 ?v_156))) (let ((?v_435 (not ?v_181)) (?v_258 (< ?v_31 (- 27)))) (let ((?v_255 (not ?v_258)) (?v_304 (< (- (+ (* 5 x17) (* 17 x30)) (* 17 x39)) (- 28)))) (let ((?v_345 (not ?v_304)) (?v_176 (not ?v_160)) (?v_220 (< ?v_163 (- 23)))) (let ((?v_447 (not ?v_220)) (?v_259 (= (f0_2 x18 x31) ?v_92))) (let ((?v_459 (not ?v_259)) (?v_247 (< ?v_166 19)) (?v_387 (< x1 (- 18)))) (let ((?v_337 (not ?v_387)) (?v_463 (< x32 (- 14)))) (let ((?v_385 (not ?v_463)) (?v_256 (< (f0_2 x20 x37) (- 18)))) (let ((?v_322 (not ?v_256)) (?v_266 (< x21 (- 1))) (?v_370 (< ?v_223 (- 21))) (?v_239 (- (+ (* (- 13) x16) (* 16 x27)) (* 14 x20)))) (let ((?v_288 (= ?v_239 ?v_189))) (let ((?v_264 (not ?v_288)) (?v_273 (not ?v_191)) (?v_308 (< ?v_195 (- 24)))) (let ((?v_230 (not ?v_308)) (?v_233 (< ?v_49 (- 10))) (?v_209 (not ?v_198)) (?v_257 (< ?v_1 (- 23))) (?v_480 (not ?v_139)) (?v_409 (not ?v_213)) (?v_333 (< (+ (* 2 x35) (* 16 x26) (* 25 x20)) (- 25))) (?v_388 (not ?v_215)) (?v_250 (not ?v_216)) (?v_307 (not ?v_221)) (?v_254 (< ?v_75 (- 25)))) (let ((?v_373 (not ?v_254)) (?v_316 (< ?v_38 (- 3)))) (let ((?v_400 (not ?v_316)) (?v_390 (not ?v_224)) (?v_309 (not ?v_233)) (?v_252 (= ?v_118 x36)) (?v_268 (< ?v_239 (- 1))) (?v_248 (< ?v_239 (- 29)))) (let ((?v_278 (not ?v_252)) (?v_351 (< ?v_189 (- 2))) (?v_436 (< ?v_38 (- 25)))) (let ((?v_285 (not ?v_436)) (?v_343 (< ?v_261 25)) (?v_359 (< x24 (- 10))) (?v_355 (< ?v_84 (- 25))) (?v_296 (not ?v_268)) (?v_286 (< ?v_270 (- 14))) (?v_332 (< ?v_9 (- 22)))) (let ((?v_338 (not ?v_332)) (?v_306 (not ?v_170)) (?v_421 (not ?v_81)) (?v_287 (not ?v_257)) (?v_395 (= ?v_283 ?v_37)) (?v_334 (< ?v_163 29)) (?v_398 (not ?v_158)) (?v_330 (= (+ (- (* (- 28) ?v_97) (* 6 x13)) (* 2 ?v_163)) ?v_97))) (let ((?v_486 (not ?v_330)) (?v_319 (< ?v_84 (- 10))) (?v_416 (not ?v_196)) (?v_328 (not (< x19 (- 12)))) (?v_414 (< ?v_311 (- 29)))) (let ((?v_396 (not ?v_319)) (?v_350 (not ?v_323)) (?v_439 (not ?v_266)) (?v_470 (not ?v_127)) (?v_445 (not ?v_145)) (?v_368 (< ?v_261 0))) (let ((?v_386 (not ?v_368)) (?v_440 (< x27 (- 21))) (?v_424 (< ?v_366 20))) (let ((?v_419 (not ?v_424)) (?v_475 (not ?v_48)) (?v_411 (= (- (- (* 27 ?v_381) (* 10 x22)) (* 7 ?v_382)) ?v_382)) (?v_448 (not (< ?v_392 (- 4)))) (?v_443 (< (f0_2 x6 x18) (- 19))) (?v_437 (< (- (- (* (- 26) x8) (* 16 x5)) ?v_407) (- 16))) (?v_444 (not ?v_248)) (?v_454 (not ?v_401)) (?v_468 (not ?v_426)) (?v_432 (not ?v_280)) (?v_453 (not ?v_414)) (?v_458 (not ?v_334)) (?v_478 (not ?v_63)) (?v_483 (not ?v_94)) (?v_469 (not ?v_370))) (and (and (and (and (and (and (and (and (and (and (and (and (and (and (and (and (and (and (and (and (and (and (and (and (and (and (and (and (and (and (and (and (and (and (and (and (and (and (and (and (and (and (and (and (and (and (and (and (and (and (and (and (and (and (and (and (and (and (and (and (and (and (and (and (and (and (and (and (and (and (and (and (and (and (and (and (and (and (and (and (and (and (and (and (and (and (and (and (and (and (and (and (and (and (and (and (and (and (and (and (and (and (and (and (and (and (and (and (and (and (and (and (and (and (and (and (and (and (and (and (and (and (and (and (and (and (and (and (and (and (and (and (and (and (and (and (and (and (and (and (and (and (and (and (and (and (and (and (and (and (and (and (and (and (and (and (and (and (and (and (and (and (and (and (and (and (and (and (and (and (and (and (and (and (and (and (and (and (and (and (and (and (and (and (and (and (and (and (and (and (and (and (and (and (and (and (and (and (and (and (and (and (and (and (and (and (and (and (and (and (and (and (and (and (and (and (and (and (and (and (and (and (and (and (and (and (and (and (and (and (and (and (and (and (and (and (and (and (and (and (and (and (and (and (and (and (and (and (and (and (and (and (and (and (and (and (and (and (and (and (and (and (and (and (and (and (and (and (and (and (and (and (and (and (and (and (and (and (and (and (and (and (and (and (and (and (and (and (and (and (and (and (and (and (and (and (and (and (and (and (and (and (and (and (and (and (and (and (and (and (and (and (and (and (and (and (and (and (and (and (and (and (and (and (and (and (and (and (and (and (and (and (and (and (and (and (and (and (and (and (and (and (and (and (and (and (and (and (and (and (and (and (and (and (and (and (and (and (and (and (and (and (and (and (and (and (and (and (and (and (and (and (and (and (and (and (and (and (and (and (and (and (and (and (and (and (and (and (and (and (and (and (and (and (and (and (and (and (and (and (and (and (and (and (and (and (and (and (and (and (and (and (and (and (and (and (and (and (and (and (and (and (and (and (and (and (and (and (and (and (and (and (and (and (and (and (and (and (and (and (and (and (and (and (and (and (and (and (and (and (and (and (and (and (and (and (and (and (and (and (and (and (and (and (and (and (and (and (and (and (and (and (and (and (and (and (and (and (and (and (and (and (and (and (and (and (and (and (and (and (and (and (and (and (and (and (and (and (and (and (and (and (and (and (and (and (and (and (and (and (and (and (and (and (and (and (and (and (and (and (and (and (and (and (and (and (and (and (and (and (and (and (and (and (and (and (and (and (and (and (and (and (and (and (and (and (and (and (and (and (and (and (and (and (and (and (and (and (and (and (and (and (and (and (and (and (and (and (and (and (and (and (and (and (and (and (and (and (and (and (and (and (and (and (and (and (and (and (and (and (and (and (and (and (and (and (and (and (and (or (or ?v_78 ?v_184) ?v_242) (or (or P4 ?v_121) ?v_3)) (or (or P23 ?v_53) ?v_61)) (or (or ?v_62 ?v_146) ?v_83)) (or (or P16 ?v_3) ?v_94)) (or (or ?v_17 ?v_154) ?v_403)) (or (or P28 ?v_36) ?v_422)) (or (or ?v_160 P1) ?v_99)) (or (or ?v_376 P8) ?v_157)) (or (or ?v_81 ?v_12) ?v_142)) (or (or ?v_227 ?v_274) ?v_212)) (or (or ?v_18 ?v_131) ?v_79)) (or (or ?v_324 ?v_431) ?v_114)) (or (or ?v_192 ?v_104) ?v_300)) (or (or P24 ?v_82) ?v_401)) (or (or P2 ?v_177) ?v_24)) (or (or ?v_46 ?v_377) ?v_42)) (or (or ?v_16 ?v_17) ?v_18)) (or (or ?v_105 ?v_55) ?v_48)) (or (or ?v_122 ?v_276) ?v_23)) (or (or ?v_63 P21) P27)) (or (or ?v_72 ?v_292) ?v_210)) (or (or ?v_24 ?v_215) ?v_374)) (or (or ?v_16 ?v_471) ?v_130)) (or (or ?v_151 ?v_44) ?v_198)) (or (or ?v_225 ?v_222) ?v_406)) (or (or ?v_164 ?v_297) (not ?v_98))) (or (or ?v_450 ?v_24) ?v_174)) (or (or (not P0) ?v_50) ?v_36)) (or (or ?v_123 ?v_56) ?v_399)) (or (or ?v_193 ?v_191) ?v_41)) (or (or ?v_347 ?v_172) ?v_44)) (or (or ?v_103 ?v_150) ?v_45)) (or (or ?v_45 ?v_46) ?v_58)) (or (or ?v_143 ?v_112) ?v_54)) (or (or ?v_48 (not ?v_206)) P4)) (or (or ?v_249 ?v_51) ?v_111)) (or (or ?v_53 ?v_36) ?v_54)) (or (or ?v_216 ?v_313) ?v_110)) (or (or ?v_56 ?v_64) ?v_185)) (or (or ?v_426 ?v_41) ?v_58)) (or (or ?v_88 ?v_86) ?v_60)) (or (or ?v_44 ?v_67) ?v_148)) (or (or ?v_61 ?v_295) ?v_265)) (or (or ?v_68 ?v_335) ?v_63)) (or (or ?v_64 ?v_65) ?v_66)) (or (or ?v_67 ?v_68) ?v_360)) (or (or P35 ?v_165) ?v_74)) (or (or ?v_137 ?v_127) ?v_70)) (or (or P38 ?v_152) ?v_72)) (or (or ?v_197 ?v_389) ?v_108)) (or (or ?v_326 P6) ?v_299)) (or (or ?v_149 ?v_78) ?v_56)) (or (or ?v_183 ?v_79) ?v_145)) (or (or ?v_80 ?v_169) ?v_81)) (or (or ?v_96 ?v_281) ?v_83)) (or (or ?v_277 ?v_85) ?v_86)) (or (or ?v_113 ?v_87) ?v_205)) (or (or ?v_89 ?v_72) ?v_139)) (or (or ?v_194 ?v_158) ?v_93)) (or (or ?v_94 ?v_95) ?v_341)) (or (or ?v_466 ?v_294) P3)) (or (or P5 ?v_260) ?v_199)) (or (or ?v_98 ?v_41) (not ?v_99))) (or (or ?v_48 ?v_100) ?v_186)) (or (or ?v_60 ?v_323) ?v_246)) (or (or ?v_280 ?v_103) ?v_104)) (or (or ?v_41 ?v_203) ?v_135)) (or (or ?v_214 ?v_107) ?v_108)) (or (or ?v_329 ?v_190) ?v_119)) (or (or P11 ?v_109) ?v_327)) (or (or ?v_348 ?v_60) ?v_159)) (or (or ?v_113 ?v_114) ?v_196)) (or (or ?v_167 ?v_427) ?v_243)) (or (or P14 ?v_61) ?v_237)) (or (or ?v_119 ?v_282) ?v_224)) (or (or ?v_168 ?v_121) ?v_122)) (or (or ?v_161 ?v_123) ?v_124)) (or (or ?v_125 ?v_342) ?v_126)) (or (or ?v_122 ?v_187) ?v_127)) (or (or P11 ?v_211) ?v_484)) (or (or ?v_66 ?v_130) ?v_131)) (or (or P30 ?v_221) ?v_275)) (or (or ?v_141 ?v_290) ?v_321)) (or (or ?v_279 ?v_135) ?v_136)) (or (or P2 ?v_289) P33)) (or (or P24 ?v_236) ?v_378)) (or (or ?v_137 ?v_65) ?v_103)) (or (or ?v_12 P10) ?v_474)) (or (or ?v_99 ?v_138) ?v_139)) (or (or ?v_140 ?v_482) ?v_72)) (or (or ?v_162 ?v_143) ?v_429)) (or (or P27 ?v_144) ?v_145)) (or (or ?v_251 ?v_70) ?v_147)) (or (or ?v_148 P6) ?v_122)) (or (or ?v_149 ?v_150) ?v_151)) (or (or ?v_152 ?v_113) ?v_62)) (or (or ?v_218 ?v_153) ?v_213)) (or (or ?v_154 ?v_104) ?v_384)) (or (or ?v_170 (not ?v_219)) ?v_151)) (or (or ?v_435 ?v_157) ?v_108)) (or (or ?v_98 ?v_255) ?v_179)) (or (or ?v_158 ?v_45) ?v_231)) (or (or ?v_305 ?v_331) ?v_245)) (or (or P10 P17) ?v_345)) (or (or ?v_159 ?v_176) ?v_161)) (or (or ?v_162 ?v_175) ?v_447)) (or (or ?v_164 P26) ?v_459)) (or (or ?v_165 (not ?v_247)) (not ?v_167))) (or (or P5 ?v_318) ?v_72)) (or (or ?v_81 ?v_169) ?v_170)) (or (or ?v_337 ?v_171) P37)) (or (or ?v_88 ?v_123) ?v_157)) (or (or ?v_352 ?v_172) ?v_173)) (or (or ?v_385 ?v_149) ?v_174)) (or (or ?v_322 ?v_175) ?v_60)) (or (or ?v_176 ?v_48) ?v_397)) (or (or ?v_177 ?v_55) ?v_477)) (or (or ?v_148 ?v_178) ?v_179)) (or (or ?v_136 ?v_180) ?v_181)) (or (or ?v_182 ?v_137) ?v_183)) (or (or ?v_184 ?v_185) ?v_99)) (or (or ?v_186 ?v_18) ?v_266)) (or (or ?v_370 ?v_187) P23)) (or (or ?v_208 ?v_65) P15)) (or (or ?v_229 ?v_264) ?v_81)) (or (or ?v_66 ?v_190) ?v_273)) (or (or (not ?v_192) ?v_193) ?v_124)) (or (or ?v_194 ?v_230) ?v_196)) (or (or ?v_58 ?v_83) ?v_56)) (or (or ?v_179 ?v_197) ?v_198)) (or (or ?v_199 ?v_86) ?v_200)) (or (or ?v_16 ?v_393) ?v_203)) (or (or ?v_233 ?v_204) ?v_175)) (or (or ?v_60 ?v_271) P37)) (or (or ?v_176 P23) ?v_209)) (or (or ?v_152 ?v_24) ?v_186)) (or (or ?v_161 ?v_153) ?v_205)) (or (or ?v_257 ?v_206) (not ?v_364))) (or (or P31 ?v_208) ?v_44)) (or (or ?v_209 ?v_210) P18)) (or (or ?v_211 ?v_303) P38)) (or (or ?v_480 ?v_310) ?v_212)) (or (or ?v_409 (not P26)) P1)) (or (or ?v_333 ?v_214) ?v_388)) (or (or ?v_250 ?v_135) ?v_72)) (or (or ?v_217 ?v_148) ?v_417)) (or (or ?v_218 ?v_238) ?v_467)) (or (or ?v_402 ?v_219) ?v_220)) (or (or P6 ?v_124) ?v_307)) (or (or (not ?v_269) ?v_165) P39)) (or (or ?v_222 ?v_373) ?v_400)) (or (or ?v_41 ?v_391) ?v_157)) (or (or ?v_390 ?v_225) ?v_226)) (or (or ?v_93 ?v_227) ?v_228)) (or (or ?v_240 ?v_122) ?v_464)) (or (or ?v_229 ?v_230) ?v_231)) (or (or ?v_232 ?v_210) ?v_309)) (or (or ?v_234 ?v_479) ?v_161)) (or (or ?v_227 ?v_252) ?v_349)) (or (or P30 ?v_236) ?v_237)) (or (or ?v_238 ?v_268) P9)) (or (or ?v_180 ?v_240) ?v_3)) (or (or ?v_241 P15) ?v_242)) (or (or P13 ?v_243) ?v_244)) (or (or ?v_93 ?v_137) ?v_169)) (or (or ?v_242 ?v_245) ?v_246)) (or (or ?v_230 ?v_248) ?v_247)) (or (or ?v_248 ?v_249) ?v_68)) (or (or ?v_250 ?v_251) ?v_367)) (or (or ?v_278 ?v_110) ?v_253)) (or (or ?v_243 P18) ?v_254)) (or (or ?v_86 P4) ?v_255)) (or (or ?v_256 ?v_100) ?v_257)) (or (or ?v_150 ?v_358) ?v_351)) (or (or ?v_213 ?v_127) ?v_258)) (or (or ?v_375 ?v_107) ?v_197)) (or (or ?v_85 ?v_259) ?v_36)) (or (or ?v_51 ?v_260) ?v_298)) (or (or ?v_243 ?v_152) ?v_81)) (or (or ?v_285 ?v_79) ?v_98)) (or (or ?v_343 ?v_262) ?v_50)) (or (or P23 ?v_267) ?v_253)) (or (or P0 ?v_81) ?v_412)) (or (or ?v_249 ?v_312) ?v_359)) (or (or ?v_169 ?v_149) ?v_225)) (or (or ?v_263 ?v_264) ?v_184)) (or (or ?v_344 ?v_355) ?v_265)) (or (or ?v_225 ?v_266) P3)) (or (or ?v_233 ?v_267) ?v_226)) (or (or ?v_296 ?v_138) ?v_240)) (or (or ?v_137 ?v_205) ?v_193)) (or (or ?v_269 ?v_100) ?v_286)) (or (or ?v_338 ?v_113) ?v_208)) (or (or ?v_229 ?v_271) ?v_80)) (or (or P37 ?v_272) P6)) (or (or ?v_197 ?v_273) ?v_306)) (or (or ?v_180 ?v_250) ?v_446)) (or (or ?v_206 ?v_421) ?v_110)) (or (or ?v_17 ?v_274) ?v_275)) (or (or ?v_276 ?v_287) P39)) (or (or ?v_148 ?v_277) ?v_278)) (or (or ?v_254 P2) ?v_93)) (or (or ?v_53 ?v_279) ?v_284)) (or (or ?v_280 ?v_281) ?v_63)) (or (or ?v_282 ?v_104) P34)) (or (or ?v_72 ?v_61) (not ?v_395))) (or (or ?v_423 ?v_336) ?v_154)) (or (or ?v_285 ?v_18) ?v_62)) (or (or ?v_286 ?v_246) ?v_45)) (or (or ?v_334 ?v_398) ?v_287)) (or (or ?v_486 ?v_245) ?v_288)) (or (or ?v_289 ?v_140) ?v_284)) (or (or ?v_41 ?v_218) ?v_172)) (or (or ?v_157 ?v_290) ?v_107)) (or (or ?v_194 ?v_12) ?v_252)) (or (or ?v_291 ?v_319) ?v_278)) (or (or ?v_12 ?v_94) ?v_87)) (or (or ?v_292 ?v_58) ?v_293)) (or (or ?v_180 ?v_262) ?v_408)) (or (or ?v_137 ?v_260) ?v_294)) (or (or ?v_302 ?v_179) ?v_295)) (or (or ?v_273 ?v_18) ?v_296)) (or (or ?v_297 ?v_284) ?v_354)) (or (or ?v_64 ?v_135) ?v_441)) (or (or ?v_159 ?v_300) ?v_416)) (or (or ?v_301 ?v_362) ?v_199)) (or (or ?v_302 P25) ?v_44)) (or (or ?v_98 ?v_175) ?v_63)) (or (or ?v_139 ?v_112) ?v_16)) (or (or ?v_251 ?v_191) ?v_265)) (or (or ?v_328 ?v_253) ?v_303)) (or (or ?v_253 ?v_281) ?v_304)) (or (or ?v_125 ?v_259) ?v_260)) (or (or ?v_124 ?v_369) ?v_220)) (or (or ?v_164 ?v_305) ?v_456)) (or (or ?v_154 ?v_251) ?v_206)) (or (or ?v_279 ?v_178) ?v_306)) (or (or ?v_178 ?v_257) ?v_307)) (or (or ?v_353 ?v_308) ?v_51)) (or (or ?v_172 ?v_298) ?v_303)) (or (or ?v_309 P9) ?v_23)) (or (or ?v_320 ?v_262) ?v_414)) (or (or ?v_167 ?v_481) ?v_226)) (or (or ?v_312 ?v_279) ?v_313)) (or (or ?v_293 ?v_170) ?v_314)) (or (or ?v_315 ?v_253) ?v_227)) (or (or ?v_125 ?v_316) ?v_317)) (or (or P36 ?v_253) ?v_318)) (or (or ?v_396 P4) ?v_288)) (or (or ?v_320 ?v_24) ?v_209)) (or (or ?v_171 ?v_151) ?v_321)) (or (or ?v_45 ?v_322) ?v_219)) (or (or ?v_350 (not ?v_324)) ?v_325)) (or (or ?v_237 ?v_238) ?v_173)) (or (or ?v_173 ?v_326) ?v_327)) (or (or P22 ?v_279) ?v_209)) (or (or ?v_210 ?v_328) ?v_329)) (or (or ?v_330 ?v_184) ?v_331)) (or (or ?v_332 ?v_321) ?v_183)) (or (or ?v_333 ?v_439) ?v_187)) (or (or ?v_193 ?v_122) ?v_82)) (or (or ?v_334 ?v_363) ?v_340)) (or (or ?v_333 ?v_234) ?v_336)) (or (or ?v_81 ?v_337) ?v_314)) (or (or ?v_53 P15) ?v_240)) (or (or P9 ?v_338) ?v_339)) (or (or ?v_217 ?v_209) ?v_340)) (or (or ?v_341 ?v_342) ?v_316)) (or (or ?v_343 ?v_3) ?v_187)) (or (or ?v_470 ?v_334) ?v_167)) (or (or P29 ?v_344) ?v_238)) (or (or ?v_100 P35) P27)) (or (or ?v_338 ?v_147) ?v_254)) (or (or ?v_345 ?v_285) ?v_445)) (or (or ?v_88 ?v_170) ?v_212)) (or (or ?v_141 ?v_476) ?v_386)) (or (or ?v_167 ?v_346) ?v_185)) (or (or ?v_78 ?v_88) ?v_347)) (or (or ?v_348 P4) ?v_272)) (or (or ?v_258 ?v_349) ?v_350)) (or (or ?v_253 ?v_96) P19)) (or (or ?v_100 ?v_351) ?v_152)) (or (or ?v_321 ?v_148) ?v_352)) (or (or ?v_349 ?v_96) P21)) (or (or ?v_321 ?v_221) P37)) (or (or ?v_343 ?v_210) ?v_440)) (or (or ?v_136 ?v_100) ?v_353)) (or (or ?v_113 ?v_334) ?v_111)) (or (or ?v_142 ?v_140) ?v_110)) (or (or ?v_334 ?v_240) ?v_354)) (or (or ?v_105 (not ?v_355)) ?v_218)) (or (or P15 ?v_289) ?v_314)) (or (or ?v_332 P20) P39)) (or (or ?v_356 ?v_357) ?v_350)) (or (or ?v_62 (not ?v_333)) ?v_206)) (or (or ?v_358 ?v_327) ?v_319)) (or (or ?v_359 ?v_282) ?v_317)) (or (or ?v_360 ?v_274) ?v_251)) (or (or ?v_361 ?v_365) ?v_299)) (or (or P13 ?v_213) ?v_248)) (or (or ?v_66 ?v_263) ?v_334)) (or (or ?v_320 ?v_96) ?v_192)) (or (or ?v_93 ?v_114) ?v_334)) (or (or ?v_363 ?v_364) (not ?v_351))) (or (or P25 ?v_325) ?v_79)) (or (or ?v_365 ?v_293) ?v_104)) (or (or ?v_297 ?v_42) ?v_419)) (or (or ?v_367 ?v_368) P17)) (or (or ?v_319 ?v_300) ?v_336)) (or (or ?v_369 ?v_64) ?v_315)) (or (or ?v_370 ?v_371) P3)) (or (or ?v_372 ?v_269) ?v_139)) (or (or ?v_53 ?v_219) ?v_318)) (or (or ?v_196 ?v_137) ?v_373)) (or (or ?v_374 ?v_375) ?v_329)) (or (or ?v_376 ?v_475) ?v_110)) (or (or ?v_352 ?v_61) ?v_377)) (or (or ?v_378 ?v_333) P7)) (or (or ?v_353 P26) ?v_425)) (or (or ?v_380 ?v_411) ?v_230)) (or (or ?v_258 ?v_64) ?v_383)) (or (or P8 ?v_94) ?v_196)) (or (or ?v_259 ?v_108) ?v_384)) (or (or ?v_321 ?v_385) ?v_124)) (or (or ?v_95 ?v_386) ?v_387)) (or (or ?v_227 ?v_388) ?v_233)) (or (or ?v_80 ?v_389) ?v_308)) (or (or ?v_390 P2) ?v_80)) (or (or ?v_350 ?v_95) ?v_333)) (or (or ?v_348 P35) P18)) (or (or ?v_36 ?v_374) P4)) (or (or ?v_124 ?v_61) ?v_328)) (or (or ?v_41 ?v_254) ?v_462)) (or (or ?v_394 ?v_53) ?v_108)) (or (or ?v_448 ?v_393) ?v_386)) (or (or ?v_455 ?v_321) ?v_395)) (or (or ?v_396 ?v_85) ?v_121)) (or (or ?v_158 ?v_180) ?v_63)) (or (or ?v_88 ?v_395) (not ?v_343))) (or (or ?v_316 ?v_157) ?v_397)) (or (or ?v_398 ?v_282) ?v_326)) (or (or ?v_399 ?v_137) ?v_306)) (or (or ?v_240 ?v_63) ?v_367)) (or (or ?v_378 ?v_105) ?v_434)) (or (or ?v_293 ?v_400) P4)) (or (or ?v_282 ?v_224) ?v_348)) (or (or ?v_401 ?v_402) ?v_152)) (or (or ?v_403 ?v_95) ?v_164)) (or (or ?v_354 ?v_142) ?v_302)) (or (or ?v_245 ?v_404) ?v_389)) (or (or ?v_354 ?v_394) ?v_310)) (or (or P39 (not ?v_443)) ?v_45)) (or (or ?v_405 ?v_130) ?v_406)) (or (or ?v_279 ?v_110) ?v_437)) (or (or ?v_187 ?v_289) ?v_269)) (or (or ?v_247 P37) ?v_242)) (or (or ?v_103 ?v_54) P28)) (or (or ?v_42 ?v_199) ?v_408)) (or (or ?v_444 P11) ?v_297)) (or (or ?v_310 ?v_98) ?v_190)) (or (or ?v_363 ?v_367) ?v_409)) (or (or ?v_410 ?v_291) ?v_230)) (or (or ?v_243 P22) ?v_241)) (or (or ?v_277 ?v_183) ?v_313)) (or (or ?v_312 P31) ?v_389)) (or (or ?v_309 ?v_411) ?v_225)) (or (or (not ?v_286) ?v_412) ?v_238)) (or (or ?v_473 ?v_378) ?v_413)) (or (or ?v_324 ?v_24) ?v_74)) (or (or P4 ?v_315) ?v_199)) (or (or ?v_110 ?v_336) ?v_414)) (or (or ?v_100 ?v_401) ?v_185)) (or (or ?v_67 ?v_391) P5)) (or (or ?v_152 ?v_109) ?v_125)) (or (or ?v_208 ?v_415) ?v_454)) (or (or ?v_182 ?v_185) ?v_416)) (or (or ?v_224 ?v_417) ?v_346)) (or (or ?v_418 ?v_122) ?v_136)) (or (or ?v_323 ?v_375) ?v_198)) (or (or ?v_419 ?v_420) ?v_306)) (or (or ?v_421 P3) ?v_422)) (or (or ?v_423 ?v_394) ?v_58)) (or (or ?v_424 ?v_153) ?v_425)) (or (or ?v_468 ?v_209) ?v_160)) (or (or ?v_359 ?v_54) ?v_213)) (or (or ?v_388 ?v_131) ?v_94)) (or (or ?v_427 ?v_312) ?v_213)) (or (or ?v_428 ?v_284) ?v_331)) (or (or ?v_172 P5) ?v_287)) (or (or ?v_257 ?v_388) ?v_429)) (or (or ?v_396 P21) ?v_238)) (or (or ?v_430 ?v_340) ?v_268)) (or (or ?v_386 ?v_64) ?v_79)) (or (or ?v_98 ?v_432) ?v_414)) (or (or ?v_411 ?v_291) ?v_348)) (or (or ?v_349 ?v_282) ?v_430)) (or (or ?v_358 ?v_137) ?v_274)) (or (or ?v_64 ?v_313) ?v_199)) (or (or ?v_230 ?v_238) ?v_356)) (or (or ?v_431 ?v_282) ?v_151)) (or (or ?v_363 ?v_389) P5)) (or (or ?v_400 ?v_210) ?v_460)) (or (or P36 ?v_403) ?v_51)) (or (or ?v_12 ?v_154) ?v_367)) (or (or ?v_222 ?v_286) ?v_141)) (or (or (not ?v_44) ?v_384) ?v_294)) (or (or ?v_286 ?v_187) ?v_74)) (or (or ?v_403 ?v_292) ?v_457)) (or (or ?v_358 ?v_346) ?v_368)) (or (or ?v_100 ?v_432) ?v_215)) (or (or ?v_138 ?v_451) ?v_353)) (or (or ?v_434 ?v_65) ?v_154)) (or (or P21 ?v_435) ?v_258)) (or (or ?v_216 ?v_105) ?v_213)) (or (or ?v_46 ?v_369) ?v_436)) (or (or ?v_394 (not ?v_437)) ?v_199)) (or (or ?v_240 ?v_250) ?v_172)) (or (or ?v_393 ?v_174) ?v_182)) (or (or ?v_212 ?v_206) ?v_160)) (or (or ?v_395 ?v_306) ?v_422)) (or (or ?v_220 ?v_384) ?v_362)) (or (or ?v_438 ?v_138) P15)) (or (or ?v_221 ?v_280) ?v_439)) (or (or ?v_144 (not ?v_440)) ?v_353)) (or (or ?v_301 ?v_398) ?v_386)) (or (or ?v_54 ?v_245) ?v_205)) (or (or P13 ?v_187) ?v_441)) (or (or ?v_442 ?v_326) ?v_443)) (or (or ?v_335 ?v_406) ?v_100)) (or (or ?v_358 ?v_273) P6)) (or (or ?v_55 ?v_292) ?v_394)) (or (or ?v_359 ?v_367) ?v_444)) (or (or P4 ?v_445) ?v_386)) (or (or ?v_83 ?v_327) ?v_446)) (or (or ?v_423 ?v_243) ?v_308)) (or (or ?v_294 ?v_356) ?v_401)) (or (or ?v_96 ?v_184) ?v_396)) (or (or ?v_386 (not ?v_423)) ?v_291)) (or (or ?v_299 ?v_272) ?v_230)) (or (or P31 ?v_277) ?v_289)) (or (or ?v_254 ?v_186) ?v_267)) (or (or P39 ?v_453) ?v_299)) (or (or ?v_411 ?v_424) ?v_110)) (or (or ?v_158 ?v_447) ?v_449)) (or (or ?v_423 ?v_268) ?v_246)) (or (or P11 ?v_214) P30)) (or (or ?v_352 ?v_251) ?v_391)) (or (or P6 ?v_374) ?v_222)) (or (or ?v_182 ?v_448) ?v_302)) (or (or ?v_18 ?v_449) ?v_140)) (or (or ?v_450 ?v_204) ?v_350)) (or (or ?v_17 ?v_297) ?v_438)) (or (or (not ?v_451) ?v_330) ?v_327)) (or (or ?v_169 ?v_214) ?v_296)) (or (or ?v_285 ?v_452) ?v_152)) (or (or ?v_453 ?v_161) ?v_93)) (or (or ?v_268 ?v_250) ?v_360)) (or (or P33 ?v_345) ?v_72)) (or (or ?v_434 ?v_454) ?v_44)) (or (or ?v_16 ?v_199) P5)) (or (or ?v_336 ?v_359) ?v_230)) (or (or ?v_228 ?v_333) ?v_63)) (or (or ?v_68 ?v_152) ?v_305)) (or (or ?v_215 ?v_442) ?v_203)) (or (or ?v_414 ?v_289) ?v_324)) (or (or ?v_70 ?v_186) ?v_191)) (or (or ?v_161 ?v_388) ?v_242)) (or (or ?v_44 ?v_122) ?v_359)) (or (or ?v_213 ?v_172) ?v_436)) (or (or ?v_455 ?v_24) ?v_233)) (or (or ?v_139 ?v_23) ?v_300)) (or (or ?v_456 ?v_230) ?v_458)) (or (or ?v_457 ?v_478) ?v_62)) (or (or ?v_458 ?v_318) ?v_362)) (or (or ?v_232 ?v_412) ?v_250)) (or (or ?v_459 ?v_408) ?v_316)) (or (or ?v_387 P24) ?v_242)) (or (or P14 ?v_165) ?v_153)) (or (or ?v_460 ?v_423) ?v_293)) (or (or ?v_291 P10) (not ?v_64))) (or (or ?v_461 ?v_78) ?v_152)) (or (or ?v_408 ?v_78) ?v_245)) (or (or P13 ?v_401) ?v_323)) (or (or ?v_217 ?v_274) ?v_266)) (or (or ?v_112 ?v_358) ?v_86)) (or (or ?v_462 ?v_448) P17)) (or (or P32 P26) ?v_368)) (or (or P27 ?v_87) ?v_463)) (or (or ?v_203 ?v_435) ?v_364)) (or (or ?v_112 ?v_483) ?v_442)) (or (or ?v_214 ?v_415) ?v_308)) (or (or ?v_449 ?v_95) ?v_82)) (or (or ?v_18 ?v_367) ?v_193)) (or (or ?v_338 ?v_232) ?v_323)) (or (or ?v_44 ?v_375) P16)) (or (or ?v_374 P4) ?v_168)) (or (or ?v_378 ?v_464) P37)) (or (or ?v_140 P34) ?v_425)) (or (or ?v_245 ?v_298) ?v_175)) (or (or ?v_423 ?v_339) ?v_428)) (or (or ?v_423 ?v_416) P8)) (or (or ?v_338 ?v_185) ?v_178)) (or (or ?v_167 ?v_312) ?v_335)) (or (or ?v_399 ?v_151) ?v_465)) (or (or ?v_254 ?v_466) ?v_445)) (or (or ?v_443 ?v_190) ?v_339)) (or (or P26 ?v_345) ?v_401)) (or (or ?v_467 ?v_340) ?v_422)) (or (or ?v_294 ?v_160) ?v_469)) (or (or (not ?v_411) ?v_346) ?v_383)) (or (or ?v_232 ?v_364) ?v_113)) (or (or ?v_405 ?v_306) ?v_468)) (or (or ?v_268 ?v_248) ?v_173)) (or (or ?v_23 ?v_87) ?v_469)) (or (or ?v_257 ?v_181) ?v_83)) (or (or ?v_209 ?v_268) ?v_401)) (or (or ?v_372 ?v_304) ?v_361)) (or (or ?v_167 ?v_414) P36)) (or (or ?v_96 ?v_296) (not ?v_359))) (or (or ?v_54 ?v_470) ?v_317)) (or (or ?v_342 ?v_399) ?v_434)) (or (or ?v_351 ?v_408) ?v_126)) (or (or ?v_169 ?v_471) ?v_384)) (or (or ?v_210 ?v_262) ?v_110)) (or (or ?v_413 P6) ?v_360)) (or (or ?v_253 ?v_362) ?v_333)) (or (or P27 ?v_312) ?v_179)) (or (or ?v_181 ?v_342) ?v_249)) (or (or ?v_181 ?v_205) ?v_400)) (or (or ?v_429 P33) ?v_335)) (or (or P7 ?v_260) ?v_64)) (or (or ?v_161 ?v_238) ?v_203)) (or (or P10 ?v_369) ?v_460)) (or (or ?v_428 ?v_285) ?v_452)) (or (or P24 ?v_368) ?v_472)) (or (or ?v_390 ?v_221) P26)) (or (or ?v_278 ?v_208) ?v_79)) (or (or ?v_112 ?v_42) ?v_398)) (or (or ?v_183 P12) ?v_275)) (or (or ?v_430 ?v_473) ?v_169)) (or (or ?v_159 ?v_172) ?v_474)) (or (or ?v_60 ?v_135) ?v_425)) (or (or ?v_421 ?v_475) ?v_327)) (or (or ?v_249 ?v_476) ?v_236)) (or (or ?v_332 ?v_420) ?v_94)) (or (or ?v_278 P16) ?v_477)) (or (or ?v_421 ?v_229) ?v_465)) (or (or ?v_277 ?v_126) ?v_184)) (or (or ?v_182 ?v_410) ?v_89)) (or (or ?v_234 ?v_355) ?v_205)) (or (or ?v_140 ?v_414) ?v_183)) (or (or ?v_17 ?v_153) ?v_174)) (or (or P37 P16) ?v_327)) (or (or ?v_442 ?v_230) P8)) (or (or ?v_476 ?v_440) ?v_290)) (or (or ?v_224 ?v_271) ?v_380)) (or (or P26 ?v_383) ?v_241)) (or (or ?v_376 ?v_194) ?v_259)) (or (or P22 ?v_478) ?v_291)) (or (or ?v_460 ?v_169) ?v_244)) (or (or ?v_99 ?v_450) ?v_335)) (or (or ?v_479 ?v_457) ?v_3)) (or (or ?v_297 ?v_384) ?v_168)) (or (or ?v_349 ?v_85) ?v_397)) (or (or ?v_288 ?v_171) ?v_337)) (or (or ?v_411 ?v_402) ?v_322)) (or (or ?v_398 ?v_215) ?v_277)) (or (or ?v_190 ?v_168) ?v_385)) (or (or ?v_215 ?v_248) ?v_109)) (or (or ?v_328 ?v_126) ?v_157)) (or (or P5 ?v_404) ?v_210)) (or (or ?v_260 ?v_147) ?v_218)) (or (or ?v_322 ?v_263) ?v_173)) (or (or ?v_365 ?v_146) ?v_168)) (or (or ?v_262 ?v_231) ?v_295)) (or (or ?v_359 ?v_258) ?v_430)) (or (or ?v_348 ?v_143) ?v_480)) (or (or ?v_169 ?v_24) ?v_113)) (or (or ?v_460 ?v_481) ?v_48)) (or (or ?v_178 ?v_254) ?v_170)) (or (or ?v_316 ?v_380) ?v_482)) (or (or ?v_183 ?v_377) ?v_190)) (or (or ?v_315 P31) ?v_248)) (or (or ?v_58 ?v_280) ?v_398)) (or (or ?v_322 ?v_146) ?v_298)) (or (or ?v_427 ?v_315) ?v_482)) (or (or ?v_408 ?v_42) P2)) (or (or ?v_357 ?v_303) ?v_191)) (or (or ?v_171 ?v_197) ?v_483)) (or (or ?v_146 ?v_477) ?v_484)) (or (or ?v_418 ?v_485) ?v_86)) (or (or ?v_469 ?v_355) ?v_295)) (or (or ?v_159 ?v_324) ?v_41)) (or (or ?v_17 ?v_361) ?v_303)) (or (or ?v_81 ?v_334) ?v_119)) (or (or ?v_486 P13) ?v_246)) (or (or ?v_476 ?v_127) ?v_309)) (or (or ?v_470 ?v_443) P13)) (or (or ?v_443 ?v_74) ?v_273)))))))))))))))))))))))))))))))))))))))))))))))))))))))))))))))))))))))))))))))))))))))))))))))))))))))))
(check-sat)
(exit)
